; benchmark generated from python API
(set-info :status unknown)
(declare-datatypes ((RealState 0)) (((RMk1 (rval1 Real)) (RMk2 (rval2 Real)))))
 (assert
 (forall ((|v17:0| Real) )(forall ((|v16:1| Real) )(forall ((|v15:2| Real) )(forall ((|v14:3| Real) )(forall ((|v13:4| Real) )(forall ((|v12:5| Real) )(exists ((|v11:6_st| RealState) (val!8478 Real) )(exists ((|v10:7_st| RealState) (val!8479 Real) )(exists ((|v9:8_st| RealState) (val!8480 Real) )(exists ((|v8:9_st| RealState) (val!8481 Real) )(exists ((|v7:10_st| RealState) (val!8482 Real) )(exists ((|v6:11_st| RealState) (val!8483 Real) )(forall ((|v5:12| Real) )(forall ((|v4:13| Real) )(forall ((|v3:14| Real) )(forall ((|v2:15| Real) )(forall ((|v1:16| Real) )(forall ((|v0:17| Real) )(let ((?x2092 (- 1.0)))
 (let ((?x1857 (* 4.0 |v2:15|)))
 (let ((?x1236 (+ (+ (+ (* ?x2092 |v3:14|) (* 3.0 |v5:12|)) (* 14.0 (rval2 |v11:6_st|))) ?x1857)))
 (let ((?x3031 (* 14.0 |v5:12|)))
 (let ((?x944 (+ (+ (+ (* 13.0 |v12:5|) (* (- 12.0) |v5:12|)) (* 16.0 |v13:4|)) ?x3031)))
 (let ((?x1646 (- 17.0)))
 (let ((?x3131 (rval2 |v9:8_st|)))
 (let ((?x2655 (* 9.0 ?x3131)))
 (let ((?x1766 (+ (+ (+ (* 5.0 |v2:15|) (* (- 2.0) |v15:2|)) (* (- 16.0) |v12:5|)) ?x2655)))
 (let ((?x2699 (- 9.0)))
 (let ((?x2719 (rval2 |v8:9_st|)))
 (let ((?x3055 (- 2.0)))
 (let ((?x2762 (* ?x3055 ?x2719)))
 (let ((?x1394 (+ (+ (+ (* 15.0 ?x3131) (* 17.0 |v17:0|)) (* 14.0 (rval2 |v10:7_st|))) ?x2762)))
 (let (($x205 (and (and (<= ?x1394 ?x2699) (<= ?x1766 ?x1646)) (and (<= ?x944 ?x2092) (<= ?x1236 ?x2092)))))
 (let ((?x1632 (- 4.0)))
 (let ((?x2817 (+ (+ (+ (* (- 5.0) |v3:14|) (* 0.0 (rval2 |v10:7_st|))) (* 11.0 |v14:3|)) (* 12.0 ?x2719))))
 (let ((?x1716 (+ (+ (* 11.0 (rval2 |v7:10_st|)) (* 19.0 (rval2 |v7:10_st|))) (* (- 12.0) |v15:2|))))
 (let ((?x2309 (- 18.0)))
 (let ((?x981 (+ (+ (+ (* 7.0 (rval2 |v10:7_st|)) (* (- 6.0) |v14:3|)) (* 18.0 |v1:16|)) (* (- 3.0) (rval2 |v10:7_st|)))))
 (let ((?x3125 (- 15.0)))
 (let ((?x1419 (rval2 |v10:7_st|)))
 (let ((?x1087 (* 17.0 ?x1419)))
 (let ((?x295 (- 11.0)))
 (let ((?x1179 (* ?x295 |v1:16|)))
 (let (($x1237 (<= (+ (+ (+ (* 15.0 (rval2 |v7:10_st|)) (* (- 16.0) |v2:15|)) ?x1179) ?x1087) ?x3125)))
 (let (($x1588 (and (and $x1237 (<= ?x981 ?x2309)) (or (<= (+ ?x1716 (* (- 8.0) |v16:1|)) 9.0) (<= ?x2817 ?x1632)))))
 (let ((?x2234 (* ?x3055 ?x1419)))
 (let (($x1214 (<= (+ (+ (+ (* 7.0 |v4:13|) (* 16.0 |v1:16|)) (* 10.0 |v14:3|)) ?x2234) 6.0)))
 (let ((?x1397 (- 14.0)))
 (let ((?x2288 (+ (+ (+ (* 11.0 ?x2719) (* 12.0 |v3:14|)) (* 2.0 |v17:0|)) (* (- 10.0) |v12:5|))))
 (let ((?x2370 (* 7.0 |v16:1|)))
 (let ((?x2698 (+ (+ (+ (* (- 8.0) |v3:14|) (* 18.0 |v3:14|)) (* 3.0 |v15:2|)) ?x2370)))
 (let ((?x1961 (- 20.0)))
 (let ((?x2245 (* ?x3125 |v2:15|)))
 (let (($x2316 (<= (+ (+ (+ (* ?x2092 ?x1419) (* 17.0 |v5:12|)) (* 5.0 |v5:12|)) ?x2245) ?x1961)))
 (let (($x1949 (<= (+ (+ (+ |v12:5| (* ?x2699 |v14:3|)) (* 20.0 ?x1419)) (* (- 5.0) |v14:3|)) 20.0)))
 (let ((?x216 (- 19.0)))
 (let ((?x433 (* 8.0 |v17:0|)))
 (let ((?x2673 (- 12.0)))
 (let ((?x2152 (* ?x2673 |v12:5|)))
 (let (($x1567 (<= (+ (+ (+ (* (- 10.0) |v16:1|) (* 16.0 (rval2 |v7:10_st|))) ?x2152) ?x433) ?x216)))
 (let ((?x2470 (rval2 |v7:10_st|)))
 (let ((?x2959 (+ (+ (+ (* (- 6.0) ?x3131) (* 0.0 ?x1419)) (* 17.0 |v17:0|)) ?x2470)))
 (let (($x2716 (or (and (<= ?x2959 ?x2699) (or $x1567 $x1949)) (or (or $x2316 (<= ?x2698 18.0)) (or (<= ?x2288 ?x1397) $x1214)))))
 (let ((?x169 (- 5.0)))
 (let ((?x629 (+ (+ (+ (* 20.0 |v12:5|) (* 4.0 |v15:2|)) (* ?x1646 ?x3131)) (* ?x1961 |v15:2|))))
 (let ((?x1636 (* ?x2699 |v3:14|)))
 (let (($x2745 (<= (+ (+ (+ (* ?x2309 |v14:3|) (* 5.0 |v5:12|)) (* ?x2092 ?x1419)) ?x1636) 0.0)))
 (let ((?x439 (* 6.0 |v12:5|)))
 (let (($x355 (<= (+ (+ (+ (* ?x3055 |v17:0|) (* (- 16.0) ?x2719)) (* 14.0 |v2:15|)) ?x439) 12.0)))
 (let ((?x2102 (+ (+ (+ (* (- 7.0) |v3:14|) (* (- 16.0) |v15:2|)) (* ?x1961 ?x2719)) |v4:13|)))
 (let ((?x3354 (- 16.0)))
 (let ((?x290 (* ?x3354 ?x2719)))
 (let (($x2271 (<= (+ (+ (+ (* 20.0 |v15:2|) (* 20.0 |v15:2|)) (* 18.0 ?x1419)) ?x290) 13.0)))
 (let (($x958 (<= (+ (+ (+ ?x2762 (* ?x3354 |v17:0|)) (* ?x2309 |v4:13|)) (* ?x2673 ?x2470)) 14.0)))
 (let ((?x1292 (- 13.0)))
 (let ((?x882 (* ?x1292 |v3:14|)))
 (let ((?x649 (+ (+ (+ (* 11.0 ?x3131) (* ?x1646 |v14:3|)) (* 9.0 (rval2 |v11:6_st|))) ?x882)))
 (let ((?x1975 (* 18.0 ?x1419)))
 (let (($x1482 (<= (+ (+ (+ (* ?x3354 |v2:15|) (* (- 3.0) |v4:13|)) (* ?x2309 ?x2719)) ?x1975) ?x2092)))
 (let (($x187 (or (or (and $x1482 (<= ?x649 18.0)) (or $x958 $x2271)) (and (or (<= ?x2102 7.0) $x355) (and $x2745 (<= ?x629 ?x169))))))
 (let ((?x2215 (* ?x3055 |v3:14|)))
 (let ((?x2587 (+ (+ (+ (* 18.0 |v1:16|) (* 17.0 ?x2470)) (* (- 7.0) (rval2 |v11:6_st|))) ?x2215)))
 (let ((?x1219 (* 3.0 |v5:12|)))
 (let (($x268 (<= (+ (+ (+ (* ?x2699 |v12:5|) (* ?x1961 |v17:0|)) (* ?x2673 (rval2 |v6:11_st|))) ?x1219) 11.0)))
 (let ((?x3460 (rval2 |v11:6_st|)))
 (let ((?x2884 (* 3.0 ?x3460)))
 (let ((?x2584 (+ (+ (+ (* 20.0 |v13:4|) (* 8.0 ?x3131)) (* (- 8.0) |v3:14|)) ?x2884)))
 (let (($x1081 (<= (+ (+ (+ (* (- 3.0) |v0:17|) (* ?x1961 |v4:13|)) (* 16.0 |v1:16|)) ?x2152) 3.0)))
 (let ((?x3095 (- 7.0)))
 (let (($x1597 (<= (+ (+ (+ ?x2719 (* 8.0 (rval2 |v6:11_st|))) (* ?x1961 ?x3460)) ?x1419) ?x3095)))
 (let ((?x2252 (+ (+ (+ (* ?x1961 |v5:12|) (* ?x3354 |v12:5|)) (* 17.0 |v2:15|)) (* ?x216 ?x1419))))
 (let ((?x1005 (+ (+ (+ (* ?x169 |v5:12|) (* 20.0 |v16:1|)) (* 0.0 ?x2470)) (* 0.0 ?x3131))))
 (let ((?x3122 (* 13.0 |v13:4|)))
 (let (($x3467 (<= (+ (+ (+ (* 8.0 |v1:16|) (* 7.0 ?x3131)) (* 9.0 |v2:15|)) ?x3122) 16.0)))
 (let (($x1013 (or (or (or $x3467 (<= ?x1005 ?x3055)) (and (<= ?x2252 10.0) $x1597)) (or (or $x1081 (<= ?x2584 ?x1397)) (or $x268 (<= ?x2587 0.0))))))
 (let ((?x1443 (* 18.0 |v14:3|)))
 (let (($x1891 (<= (+ (+ (+ (* 4.0 |v1:16|) (* 10.0 |v2:15|)) (* 2.0 ?x3131)) ?x1443) 7.0)))
 (let ((?x448 (- 10.0)))
 (let ((?x2302 (+ (+ (+ (* 19.0 |v1:16|) (* ?x3125 |v14:3|)) (* ?x169 |v17:0|)) (* 17.0 (rval2 |v6:11_st|)))))
 (let ((?x2447 (+ (+ (+ (* 10.0 |v1:16|) (* 14.0 |v2:15|)) (* 8.0 (rval2 |v6:11_st|))) (* ?x1961 |v13:4|))))
 (let (($x724 (<= (+ (+ (+ (* 0.0 |v15:2|) (* 7.0 |v13:4|)) (* 0.0 |v17:0|)) ?x2884) 15.0)))
 (let (($x2024 (<= (+ (+ (+ (* 11.0 |v1:16|) (* 15.0 |v16:1|)) (* ?x295 |v14:3|)) |v12:5|) ?x3125)))
 (let ((?x3288 (+ (+ (+ (* ?x216 |v3:14|) (* (- 6.0) ?x3460)) (* ?x2092 ?x3460)) (* ?x169 ?x3460))))
 (let ((?x2485 (rval2 |v6:11_st|)))
 (let ((?x796 (- 8.0)))
 (let ((?x3300 (* ?x796 ?x2485)))
 (let (($x2241 (<= (+ (+ (+ ?x3460 (* 4.0 ?x2470)) (* ?x2309 ?x2485)) (* ?x295 ?x2719)) ?x3125)))
 (let (($x2687 (or $x2241 (<= (+ (+ (+ (* 14.0 |v13:4|) ?x2234) (* ?x2673 |v17:0|)) ?x3300) 5.0))))
 (let (($x2081 (or (and $x2687 (and (<= ?x3288 5.0) $x2024)) (and (or $x724 (<= ?x2447 ?x3354)) (or (<= ?x2302 ?x448) $x1891)))))
 (let ((?x2963 (+ (+ (+ (* ?x1646 |v4:13|) (* ?x2673 |v16:1|)) (* 0.0 |v16:1|)) (* (- 6.0) ?x2719))))
 (let ((?x244 (* 15.0 |v12:5|)))
 (let (($x918 (<= (+ (+ (+ (* 6.0 |v13:4|) (* 10.0 ?x3460)) (* ?x169 ?x2719)) ?x244) ?x1646)))
 (let ((?x733 (* 6.0 |v4:13|)))
 (let (($x1670 (<= (+ (+ (+ (* 18.0 ?x2470) (* 6.0 |v16:1|)) (* 8.0 |v15:2|)) ?x733) ?x2092)))
 (let ((?x1068 (+ (+ (+ (* 17.0 |v13:4|) (* 6.0 |v14:3|)) (* ?x1397 ?x3460)) (* ?x3095 |v16:1|))))
 (let ((?x604 (* 9.0 ?x1419)))
 (let (($x2445 (<= (+ (+ (+ (* 14.0 |v1:16|) (* ?x448 |v17:0|)) (* 10.0 ?x2485)) ?x604) ?x448)))
 (let (($x1702 (<= (+ (+ (+ ?x2245 (* 17.0 |v16:1|)) (* 7.0 |v2:15|)) (* 4.0 |v16:1|)) 6.0)))
 (let ((?x953 (+ (+ (+ (* 14.0 |v15:2|) (* ?x3125 ?x3131)) (* 6.0 |v14:3|)) (* ?x216 |v12:5|))))
 (let ((?x1014 (* 19.0 ?x1419)))
 (let (($x403 (<= (+ (+ (+ (* ?x1397 |v12:5|) (* 12.0 |v5:12|)) (* 0.0 |v0:17|)) ?x1014) 0.0)))
 (let (($x2153 (<= (+ (+ (+ (* 5.0 |v16:1|) (* 14.0 |v1:16|)) ?x3300) (* 11.0 |v17:0|)) 19.0)))
 (let (($x3254 (and (and (and $x2153 $x403) (or (<= ?x953 ?x216) $x1702)) (and (or $x2445 (<= ?x1068 10.0)) (and $x1670 $x918)))))
 (let ((?x1368 (+ (+ (+ (* ?x448 |v3:14|) (* ?x2673 ?x2485)) (* 20.0 |v14:3|)) (* ?x216 ?x2470))))
 (let ((?x934 (* 14.0 |v3:14|)))
 (let (($x50 (<= (+ (+ (+ (* ?x1397 ?x2485) (* ?x1292 |v16:1|)) (* ?x1961 |v0:17|)) ?x934) ?x1646)))
 (let ((?x2910 (- 6.0)))
 (let ((?x2954 (* ?x2910 ?x3460)))
 (let (($x301 (<= (+ (+ (+ (* 12.0 ?x3131) (* ?x1646 |v15:2|)) (* 0.0 |v14:3|)) ?x2954) 11.0)))
 (let ((?x1009 (* ?x2673 |v1:16|)))
 (let (($x2043 (<= (+ (+ (+ (* 11.0 ?x3131) (* ?x1646 |v0:17|)) (* 7.0 |v15:2|)) ?x1009) ?x448)))
 (let ((?x2243 (* 14.0 |v1:16|)))
 (let (($x378 (<= (+ (+ (+ (* ?x2699 ?x2719) (* ?x2699 |v1:16|)) (* 5.0 |v2:15|)) ?x2243) ?x2092)))
 (let (($x331 (<= (+ (+ (+ ?x1443 (* ?x3354 |v16:1|)) (* 20.0 |v5:12|)) (* ?x2309 |v1:16|)) 2.0)))
 (let ((?x2644 (* ?x2673 |v0:17|)))
 (let (($x2180 (<= (+ (+ (+ (* ?x2699 ?x2470) (* ?x2699 ?x2485)) (* 2.0 |v13:4|)) ?x2644) 18.0)))
 (let ((?x2025 (* ?x2910 |v5:12|)))
 (let (($x594 (<= (+ (+ (+ (* ?x3125 |v3:14|) (* ?x2309 ?x1419)) (* 8.0 ?x2470)) ?x2025) 14.0)))
 (let (($x2052 (and (and (and $x594 $x2180) (or $x331 $x378)) (or (and $x2043 $x301) (and $x50 (<= ?x1368 ?x3055))))))
 (let (($x2244 (or (and (or $x2052 $x3254) (or (<= ?x2963 14.0) $x2081)) (and (and $x1013 $x187) (or $x2716 (or $x1588 $x205))))))
 (let (($x785 (not (= |v6:11_st| (RMk1 val!8483)))))
 (let (($x1017 (not (= |v7:10_st| (RMk1 val!8482)))))
 (let (($x2912 (not (= |v8:9_st| (RMk1 val!8481)))))
 (let (($x2702 (not (= |v9:8_st| (RMk1 val!8480)))))
 (let (($x1978 (not (= |v10:7_st| (RMk1 val!8479)))))
 (let (($x891 (not (= |v11:6_st| (RMk1 val!8478)))))
 (and $x891 $x1978 $x2702 $x2912 $x1017 $x785 $x2244))))))))))))))))))))))))))))))))))))))))))))))))))))))))))))))))))))))))))))))))))))))))))))))))))))))))))))))))))))))))))))))))))
 )
 )
 )
 )
 )
 )
 )
 )
 )
 )
 )
 )
 )
 )
 )
 )
 )
 )
(check-sat)
